(set-option :produce-models true); benchmark generated from python API
(set-info :status unknown)
(declare-fun l_1_0_9 () Real)
(declare-fun l_1_0_8 () Real)
(declare-fun l_1_0_7 () Real)
(declare-fun l_1_0_6 () Real)
(declare-fun l_1_0_5 () Real)
(declare-fun l_1_0_4 () Real)
(declare-fun l_1_0_3 () Real)
(declare-fun l_1_0_2 () Real)
(declare-fun l_1_0_1 () Real)
(declare-fun _a_0_ () Real)
(declare-fun l_1_0_11 () Real)
(declare-fun l_1_0_10 () Real)
(declare-fun _a_1_ () Real)
(declare-fun _a_2_ () Real)
(declare-fun l_1_1_16 () Real)
(declare-fun l_1_1_15 () Real)
(declare-fun l_1_1_9 () Real)
(declare-fun l_1_1_6 () Real)
(declare-fun l_1_1_4 () Real)
(declare-fun l_1_1_10 () Real)
(declare-fun l_1_1_1 () Real)
(declare-fun l_1_1_5 () Real)
(declare-fun l_1_1_17 () Real)
(declare-fun l_1_1_8 () Real)
(declare-fun l_1_1_7 () Real)
(declare-fun l_1_1_3 () Real)
(declare-fun l_1_1_2 () Real)
(declare-fun l_1_1_14 () Real)
(declare-fun l_1_1_13 () Real)
(declare-fun l_1_1_12 () Real)
(declare-fun l_1_1_11 () Real)
(declare-fun l_1_2_9 () Real)
(declare-fun l_1_2_8 () Real)
(declare-fun l_1_2_7 () Real)
(declare-fun l_1_2_3 () Real)
(declare-fun l_1_2_15 () Real)
(declare-fun l_1_2_14 () Real)
(declare-fun l_1_2_13 () Real)
(declare-fun l_1_2_12 () Real)
(declare-fun l_1_2_11 () Real)
(declare-fun l_1_2_10 () Real)
(declare-fun l_1_2_6 () Real)
(declare-fun l_1_2_5 () Real)
(declare-fun l_1_2_4 () Real)
(declare-fun l_1_2_2 () Real)
(declare-fun l_1_2_1 () Real)
(declare-fun l_1_2_17 () Real)
(declare-fun l_1_2_16 () Real)
(assert
 (let ((?x105 (* l_1_0_9 l_1_0_9)))
 (let ((?x442 (- (- (- (- _a_0_ l_1_0_1) l_1_0_2) (* 1.0 l_1_0_3)) (* 1.0 l_1_0_4))))
 (let ((?x439 (- (- (- (- ?x442 (* 1.0 l_1_0_5)) (* 1.0 l_1_0_6)) l_1_0_7) l_1_0_8)))
 (= (- ?x439 ?x105) 0.0)))))
(assert
 (let ((?x165 (* 2.0 l_1_0_5)))
 (let ((?x297 (+ (- (- _a_1_ (* l_1_0_10 l_1_0_10)) (* l_1_0_11 l_1_0_11)) l_1_0_3)))
 (= (+ (+ (+ ?x297 l_1_0_4) ?x165) l_1_0_6) 0.0))))
(assert
 (= (- _a_2_ (* (* 2.0 l_1_0_10) l_1_0_9)) 0.0))
(assert
 (= (- l_1_0_5) 0.0))
(assert
 (>= l_1_0_1 0.0))
(assert
 (>= l_1_0_2 0.0))
(assert
 (>= l_1_0_3 0.0))
(assert
 (>= l_1_0_4 0.0))
(assert
 (>= l_1_0_5 0.0))
(assert
 (>= l_1_0_6 0.0))
(assert
 (>= l_1_0_7 0.0))
(assert
 (>= l_1_0_8 0.0))
(assert
 (>= l_1_0_9 0.0))
(assert
 (>= l_1_0_11 0.0))
(assert
 (let ((?x233 (* _a_2_ l_1_1_9)))
 (let ((?x254 (* _a_2_ l_1_1_4)))
 (let ((?x160 (* _a_2_ l_1_1_10)))
 (let ((?x159 (+ (* (* (* (- 2.0) _a_0_) _a_2_) l_1_1_5) (* (* 1.0 _a_2_) l_1_1_1))))
 (let ((?x234 (- (+ (- (- ?x159 ?x160) ?x254) (* (* 1.0 _a_2_) l_1_1_6)) ?x233)))
 (= (+ (- ?x234 (* (* 2.0 l_1_1_15) l_1_1_16)) 8.0) 0.0)))))))
(assert
 (let ((?x13 (* l_1_1_17 l_1_1_17)))
 (let ((?x136 (* l_1_1_16 l_1_1_16)))
 (let ((?x133 (* _a_1_ l_1_1_9)))
 (let ((?x129 (* _a_1_ l_1_1_4)))
 (let ((?x132 (+ (- (- (* (* 1.0 _a_1_) l_1_1_1) (* _a_1_ l_1_1_10)) ?x129) (* (* 1.0 _a_1_) l_1_1_6))))
 (let ((?x119 (- (- (- (- ?x132 ?x133) ?x136) ?x13) (* l_1_1_5 (+ (* (* 2.0 _a_0_) _a_1_) (* _a_2_ _a_2_))))))
 (= (- ?x119 1.0) 0.0))))))))
(assert
 (let ((?x85 (* l_1_1_15 l_1_1_15)))
 (let ((?x200 (* _a_0_ l_1_1_9)))
 (let ((?x188 (* _a_0_ l_1_1_4)))
 (let ((?x203 (+ (- (- (* (* 1.0 _a_0_) l_1_1_1) (* _a_0_ l_1_1_10)) ?x188) (* (* 1.0 _a_0_) l_1_1_6))))
 (let ((?x88 (- (- (- (- (- ?x203 ?x200) (* 1.0 l_1_1_11)) l_1_1_12) l_1_1_13) l_1_1_14)))
 (let ((?x360 (- (+ (- (- ?x88 ?x85) l_1_1_2) (* 1.0 l_1_1_3)) (* (* l_1_1_5 _a_0_) _a_0_))))
 (= (- (+ (+ ?x360 (* 1.0 l_1_1_7)) (* 1.0 l_1_1_8)) 15.0) 0.0))))))))
(assert
 (= (* (* (- l_1_1_5) _a_1_) _a_1_) 0.0))
(assert
 (= (* (* (* (- 2.0) _a_1_) _a_2_) l_1_1_5) 0.0))
(assert
 (>= l_1_1_1 0.0))
(assert
 (>= l_1_1_2 0.0))
(assert
 (>= l_1_1_3 0.0))
(assert
 (>= l_1_1_4 0.0))
(assert
 (>= l_1_1_5 0.0))
(assert
 (>= l_1_1_6 0.0))
(assert
 (>= l_1_1_7 0.0))
(assert
 (>= l_1_1_8 0.0))
(assert
 (>= l_1_1_9 0.0))
(assert
 (>= l_1_1_10 0.0))
(assert
 (>= l_1_1_11 0.0))
(assert
 (>= l_1_1_12 0.0))
(assert
 (>= l_1_1_13 0.0))
(assert
 (>= l_1_1_14 0.0))
(assert
 (>= l_1_1_15 0.0))
(assert
 (>= l_1_1_17 0.0))
(assert
 (let ((?x194 (* l_1_2_15 l_1_2_15)))
 (let ((?x225 (* _a_0_ l_1_2_5)))
 (let ((?x227 (* _a_0_ l_1_2_4)))
 (let ((?x218 (- (- (- (* (* (- 1.0) _a_0_) l_1_2_1) (* _a_0_ l_1_2_2)) ?x227) ?x225)))
 (let ((?x259 (- (+ (- ?x218 (* (* 1.0 _a_0_) l_1_2_6)) _a_0_) (* 1.0 l_1_2_10))))
 (let ((?x344 (- (- (- (- (- ?x259 l_1_2_11) l_1_2_12) l_1_2_13) l_1_2_14) ?x194)))
 (let ((?x111 (- (- (- ?x344 (* 1.0 l_1_2_3)) (* (* l_1_2_7 _a_0_) _a_0_)) (* 1.0 l_1_2_8))))
 (= (- ?x111 (* 1.0 l_1_2_9)) 0.0)))))))))
(assert
 (let ((?x470 (* l_1_2_17 l_1_2_17)))
 (let ((?x468 (* l_1_2_16 l_1_2_16)))
 (let ((?x466 (* (/ 3.0 500.0) _a_2_)))
 (let ((?x463 (* (/ 15376.0 15625.0) _a_1_)))
 (let ((?x458 (* _a_1_ l_1_2_5)))
 (let ((?x456 (* _a_1_ l_1_2_4)))
 (let ((?x459 (- (- (- (* (* (- 1.0) _a_1_) l_1_2_1) (* _a_1_ l_1_2_2)) ?x456) ?x458)))
 (let ((?x469 (- (+ (+ (- ?x459 (* (* 1.0 _a_1_) l_1_2_6)) ?x463) ?x466) ?x468)))
 (let ((?x473 (- (- ?x469 ?x470) (* l_1_2_7 (+ (* (* 2.0 _a_0_) _a_1_) (* _a_2_ _a_2_))))))
 (= ?x473 0.0)))))))))))
(assert
 (= (- (* (- (/ 487.0 250000.0)) _a_1_) (* (* l_1_2_7 _a_1_) _a_1_)) 0.0))
(assert
 (let ((?x534 (* (/ 1.0 1000.0) _a_2_)))
 (let ((?x535 (- (+ (* (* (* (- 2.0) _a_1_) _a_2_) l_1_2_7) (* (/ 186.0 15625.0) _a_1_)) ?x534)))
 (= ?x535 0.0))))
(assert
 (= (* (/ 1.0 1000000.0) _a_1_) 0.0))
(assert
 (= (* (- (/ 3.0 250000.0)) _a_1_) 0.0))
(assert
 (let ((?x567 (* (/ 124.0 125.0) _a_2_)))
 (let ((?x562 (* _a_2_ l_1_2_5)))
 (let ((?x560 (* _a_2_ l_1_2_4)))
 (let ((?x558 (* _a_2_ l_1_2_2)))
 (let ((?x557 (- (* (* (* (- 2.0) _a_0_) _a_2_) l_1_2_7) (* (* 1.0 _a_2_) l_1_2_1))))
 (let ((?x565 (- (- (- (- ?x557 ?x558) ?x560) ?x562) (* (* 1.0 _a_2_) l_1_2_6))))
 (= (- (+ ?x565 ?x567) (* (* 2.0 l_1_2_15) l_1_2_16)) 0.0))))))))
(assert
 (>= l_1_2_1 0.0))
(assert
 (>= l_1_2_2 0.0))
(assert
 (>= l_1_2_3 0.0))
(assert
 (>= l_1_2_4 0.0))
(assert
 (>= l_1_2_5 0.0))
(assert
 (>= l_1_2_6 0.0))
(assert
 (>= l_1_2_7 0.0))
(assert
 (>= l_1_2_8 0.0))
(assert
 (>= l_1_2_9 0.0))
(assert
 (>= l_1_2_10 0.0))
(assert
 (>= l_1_2_11 0.0))
(assert
 (>= l_1_2_12 0.0))
(assert
 (>= l_1_2_13 0.0))
(assert
 (>= l_1_2_14 0.0))
(assert
 (>= l_1_2_15 0.0))
(assert
 (>= l_1_2_17 0.0))
(check-sat)
(get-model)